Geographic Exponential Decay
80 154 221 297 269 246 130 174 201 58 243 150 30 1 10 165 121 69 99 279 156 163 200 250 211 242 20 4 91 63 287 2 300 255 184 196 34 224 131 222 33 294 208 240 167 270 28 111 11 272 73 72 113 282 315 301 82 153 108 159 276 203 95 68 316 209 48 119 241 254 296 152 291 175 78 233 207 307 219 158 164
p edge 320 677
e 0 115 1.0
e 1 203 6.0
e 1 284 12.0
e 1 107 43.0
e 1 189 34.0
e 1 274 68.0
e 1 58 65.0
e 1 131 4.0
e 1 249 3.0
e 1 199 38.0
e 2 102 1.0
e 2 31 26.0
e 2 153 67.0
e 2 296 65.0
e 2 85 60.0
e 2 197 26.0
e 2 106 25.0
e 2 302 52.0
e 2 213 32.0
e 3 180 11.0
e 3 141 4.0
e 4 241 100.0
e 4 282 59.0
e 4 233 59.0
e 4 59 63.0
e 4 113 4.0
e 4 107 84.0
e 4 185 84.0
e 4 119 47.0
e 4 148 49.0
e 5 309 1.0
e 6 150 39.0
e 7 67 1.0
e 8 284 1.0
e 9 54 8.0
e 10 257 39.0
e 10 260 14.0
e 10 72 62.0
e 10 163 46.0
e 10 235 93.0
e 10 164 28.0
e 10 116 8.0
e 10 65 83.0
e 10 159 33.0
e 11 94 31.0
e 11 290 68.0
e 11 80 21.0
e 11 108 96.0
e 11 305 13.0
e 11 276 36.0
e 11 317 70.0
e 11 220 54.0
e 11 218 96.0
e 12 99 30.0
e 13 155 7.0
e 14 299 3.0
e 14 70 5.0
e 14 134 9.0
e 15 39 2.0
e 15 70 10.0
e 16 230 3.0
e 17 180 8.0
e 17 185 7.0
e 18 25 1.0
e 19 296 80.0
e 20 262 39.0
e 20 91 13.0
e 20 135 40.0
e 20 6 66.0
e 20 29 85.0
e 20 40 9.0
e 20 265 84.0
e 20 19 12.0
e 20 32 42.0
e 21 16 1.0
e 22 174 29.0
e 23 71 2.0
e 24 173 1.0
e 26 219 91.0
e 27 274 5.0
e 27 102 1.0
e 28 312 69.0
e 28 166 18.0
e 28 230 49.0
e 28 169 32.0
e 28 144 54.0
e 28 38 9.0
e 28 43 18.0
e 28 259 7.0
e 28 273 41.0
e 30 134 37.0
e 30 276 71.0
e 30 248 39.0
e 30 92 26.0
e 30 290 18.0
e 30 225 94.0
e 30 20 78.0
e 30 153 61.0
e 30 251 34.0
e 33 149 61.0
e 33 199 78.0
e 33 315 27.0
e 33 303 85.0
e 33 58 7.0
e 33 111 19.0
e 33 2 98.0
e 33 0 49.0
e 33 273 72.0
e 34 84 49.0
e 34 132 50.0
e 34 215 50.0
e 34 283 15.0
e 34 7 28.0
e 34 9 13.0
e 34 300 34.0
e 34 154 82.0
e 34 117 97.0
e 35 234 8.0
e 36 202 4.0
e 37 145 1.0
e 38 130 56.0
e 40 236 8.0
e 41 83 2.0
e 42 78 30.0
e 42 289 9.0
e 44 187 22.0
e 44 75 48.0
e 44 53 30.0
e 44 85 48.0
e 44 316 82.0
e 45 237 5.0
e 46 244 1.0
e 47 254 52.0
e 47 226 3.0
e 48 100 8.0
e 48 248 44.0
e 48 266 13.0
e 48 267 19.0
e 48 202 85.0
e 48 32 52.0
e 48 187 16.0
e 48 117 23.0
e 48 18 12.0
e 49 71 18.0
e 49 276 29.0
e 49 162 14.0
e 50 299 3.0
e 51 3 3.0
e 52 67 1.0
e 54 228 23.0
e 54 165 75.0
e 55 207 43.0
e 56 28 90.0
e 57 120 1.0
e 58 86 88.0
e 58 204 7.0
e 58 17 56.0
e 58 265 97.0
e 58 198 21.0
e 58 171 98.0
e 58 82 69.0
e 60 314 2.0
e 61 65 1.0
e 62 72 64.0
e 63 75 8.0
e 63 231 98.0
e 63 21 39.0
e 63 14 68.0
e 63 302 26.0
e 63 204 32.0
e 63 170 15.0
e 63 159 90.0
e 63 215 92.0
e 64 22 1.0
e 66 221 1.0
e 68 66 82.0
e 68 286 10.0
e 68 97 22.0
e 68 148 59.0
e 68 196 3.0
e 68 163 22.0
e 68 99 44.0
e 68 118 49.0
e 68 315 74.0
e 69 37 94.0
e 69 317 82.0
e 69 296 37.0
e 69 87 25.0
e 69 193 10.0
e 69 54 56.0
e 69 318 99.0
e 69 25 4.0
e 69 63 87.0
e 72 188 88.0
e 72 98 29.0
e 72 172 7.0
e 72 86 78.0
e 72 118 15.0
e 72 200 17.0
e 72 147 48.0
e 73 113 70.0
e 73 312 61.0
e 73 188 76.0
e 73 155 70.0
e 73 61 2.0
e 73 161 12.0
e 73 4 94.0
e 73 90 58.0
e 73 48 1.0
e 74 161 3.0
e 76 135 1.0
e 77 270 98.0
e 78 49 27.0
e 78 223 43.0
e 78 103 39.0
e 78 225 41.0
e 78 53 48.0
e 78 50 61.0
e 78 163 25.0
e 78 198 31.0
e 79 24 1.0
e 80 231 10.0
e 80 169 15.0
e 81 79 1.0
e 82 123 62.0
e 82 68 46.0
e 82 136 79.0
e 82 246 11.0
e 82 23 32.0
e 82 163 89.0
e 82 41 70.0
e 82 216 94.0
e 88 239 9.0
e 89 293 8.0
e 89 263 6.0
e 91 164 30.0
e 91 259 62.0
e 91 125 70.0
e 91 33 22.0
e 91 72 46.0
e 91 182 8.0
e 91 95 85.0
e 91 143 35.0
e 92 13 3.0
e 93 156 51.0
e 95 136 26.0
e 95 92 26.0
e 95 288 70.0
e 95 227 5.0
e 95 200 46.0
e 95 249 48.0
e 95 186 2.0
e 95 39 54.0
e 96 163 74.0
e 96 140 2.0
e 99 275 31.0
e 99 137 2.0
e 99 303 31.0
e 99 304 68.0
e 99 154 50.0
e 99 26 13.0
e 99 189 54.0
e 101 27 1.0
e 104 306 1.0
e 105 261 1.0
e 106 283 15.0
e 106 87 1.0
e 108 213 38.0
e 108 217 44.0
e 108 244 64.0
e 108 170 35.0
e 108 232 17.0
e 108 222 54.0
e 108 226 66.0
e 108 29 46.0
e 109 262 5.0
e 110 282 44.0
e 111 190 52.0
e 111 166 80.0
e 111 112 69.0
e 111 31 29.0
e 111 60 5.0
e 111 311 69.0
e 111 81 32.0
e 111 123 52.0
e 112 82 19.0
e 113 114 84.0
e 113 116 86.0
e 113 1 35.0
e 113 38 67.0
e 113 30 9.0
e 113 200 96.0
e 113 8 41.0
e 119 34 99.0
e 119 227 73.0
e 119 51 2.0
e 119 121 51.0
e 119 15 87.0
e 119 100 30.0
e 119 149 41.0
e 119 80 17.0
e 121 35 53.0
e 121 309 52.0
e 121 240 78.0
e 121 280 55.0
e 121 5 47.0
e 121 105 67.0
e 121 297 10.0
e 121 207 62.0
e 122 232 1.0
e 124 315 99.0
e 125 36 47.0
e 125 142 11.0
e 125 141 44.0
e 125 76 4.0
e 126 190 2.0
e 127 89 2.0
e 128 200 2.0
e 128 171 20.0
e 128 83 5.0
e 129 276 40.0
e 130 133 85.0
e 130 166 45.0
e 130 142 56.0
e 130 233 93.0
e 130 167 90.0
e 130 10 32.0
e 130 98 18.0
e 130 111 14.0
e 131 128 1.0
e 131 184 81.0
e 131 130 45.0
e 131 222 70.0
e 131 40 55.0
e 131 266 9.0
e 131 191 17.0
e 131 172 82.0
e 133 124 6.0
e 133 144 5.0
e 138 74 3.0
e 138 257 4.0
e 139 205 15.0
e 140 11 83.0
e 143 233 75.0
e 144 84 9.0
e 146 228 2.0
e 147 121 76.0
e 147 318 18.0
e 150 104 78.0
e 150 306 84.0
e 150 295 56.0
e 150 97 4.0
e 150 319 58.0
e 150 158 63.0
e 150 147 81.0
e 150 235 19.0
e 151 129 1.0
e 151 42 7.0
e 152 237 34.0
e 152 150 26.0
e 152 191 95.0
e 152 69 55.0
e 152 52 77.0
e 152 242 69.0
e 152 132 76.0
e 152 154 68.0
e 152 43 64.0
e 153 183 77.0
e 153 108 38.0
e 153 203 5.0
e 153 197 11.0
e 153 44 46.0
e 153 88 92.0
e 153 305 71.0
e 154 281 65.0
e 154 233 99.0
e 154 165 84.0
e 154 310 40.0
e 154 45 5.0
e 154 114 39.0
e 156 250 34.0
e 156 46 34.0
e 156 131 35.0
e 156 62 12.0
e 156 223 71.0
e 156 57 5.0
e 156 64 64.0
e 156 254 95.0
e 157 112 9.0
e 158 99 81.0
e 158 195 43.0
e 158 155 83.0
e 158 177 10.0
e 158 47 71.0
e 158 210 23.0
e 158 126 69.0
e 158 239 14.0
e 159 243 80.0
e 159 125 6.0
e 159 73 58.0
e 159 12 61.0
e 159 212 50.0
e 159 55 81.0
e 159 300 48.0
e 160 56 2.0
e 163 58 32.0
e 163 140 14.0
e 163 156 30.0
e 163 245 59.0
e 164 208 82.0
e 164 207 14.0
e 164 275 46.0
e 164 127 30.0
e 164 59 43.0
e 164 183 82.0
e 164 319 18.0
e 165 281 29.0
e 165 77 41.0
e 165 184 10.0
e 165 133 50.0
e 165 294 65.0
e 165 307 78.0
e 165 207 57.0
e 167 315 50.0
e 167 78 3.0
e 167 307 60.0
e 167 90 97.0
e 167 91 86.0
e 167 143 76.0
e 167 101 77.0
e 167 93 43.0
e 168 229 3.0
e 174 94 34.0
e 174 144 50.0
e 174 204 56.0
e 174 95 42.0
e 174 154 52.0
e 174 201 47.0
e 174 286 79.0
e 174 159 5.0
e 175 96 64.0
e 175 314 67.0
e 175 234 81.0
e 175 103 30.0
e 175 279 5.0
e 175 106 41.0
e 175 119 40.0
e 175 151 79.0
e 175 109 39.0
e 176 285 4.0
e 178 288 2.0
e 178 110 5.0
e 179 278 1.0
e 179 220 1.0
e 181 250 60.0
e 184 224 74.0
e 184 211 95.0
e 184 113 45.0
e 184 239 19.0
e 184 115 97.0
e 184 137 28.0
e 184 157 53.0
e 186 120 10.0
e 192 291 79.0
e 194 285 4.0
e 194 242 65.0
e 196 192 55.0
e 196 122 21.0
e 196 138 87.0
e 196 289 81.0
e 196 214 83.0
e 196 139 28.0
e 196 145 23.0
e 196 210 19.0
e 200 146 89.0
e 200 173 45.0
e 200 158 79.0
e 200 174 40.0
e 200 152 22.0
e 201 153 44.0
e 201 160 46.0
e 201 162 47.0
e 201 193 46.0
e 201 163 89.0
e 201 164 93.0
e 201 282 11.0
e 201 313 72.0
e 203 282 5.0
e 203 165 47.0
e 203 166 53.0
e 203 228 18.0
e 203 167 98.0
e 203 204 16.0
e 203 233 53.0
e 205 168 16.0
e 205 175 98.0
e 206 313 5.0
e 207 176 43.0
e 207 182 83.0
e 207 177 17.0
e 207 178 71.0
e 207 315 88.0
e 208 179 65.0
e 208 180 47.0
e 208 181 16.0
e 208 315 80.0
e 208 184 5.0
e 208 186 44.0
e 208 200 38.0
e 208 282 46.0
e 209 194 23.0
e 209 195 35.0
e 209 196 53.0
e 209 197 22.0
e 209 201 40.0
e 209 218 16.0
e 209 202 87.0
e 209 203 47.0
e 209 205 81.0
e 211 206 92.0
e 211 207 46.0
e 211 316 31.0
e 211 222 33.0
e 211 208 69.0
e 211 279 67.0
e 211 315 22.0
e 211 209 16.0
e 212 211 83.0
e 212 214 7.0
e 214 250 37.0
e 214 216 15.0
e 214 217 37.0
e 219 212 27.0
e 219 214 33.0
e 219 221 33.0
e 219 222 97.0
e 219 233 23.0
e 219 224 99.0
e 219 308 24.0
e 219 244 79.0
e 221 275 84.0
e 221 222 66.0
e 221 224 71.0
e 221 228 69.0
e 221 253 72.0
e 221 229 47.0
e 221 233 6.0
e 222 224 57.0
e 222 233 27.0
e 222 234 26.0
e 222 236 84.0
e 224 233 4.0
e 224 238 68.0
e 224 240 66.0
e 224 253 33.0
e 224 241 37.0
e 240 219 72.0
e 240 221 20.0
e 240 222 6.0
e 240 233 19.0
e 240 238 23.0
e 240 245 57.0
e 240 241 35.0
e 241 242 45.0
e 241 297 77.0
e 241 295 29.0
e 241 243 50.0
e 241 246 86.0
e 241 247 64.0
e 242 224 65.0
e 242 240 36.0
e 242 243 41.0
e 242 246 4.0
e 242 247 96.0
e 242 250 79.0
e 243 246 77.0
e 243 250 74.0
e 243 251 20.0
e 243 252 19.0
e 243 254 17.0
e 243 291 86.0
e 246 250 35.0
e 246 252 70.0
e 246 254 38.0
e 246 255 28.0
e 246 256 70.0
e 250 241 4.0
e 250 293 16.0
e 250 278 69.0
e 254 287 53.0
e 254 242 28.0
e 254 250 52.0
e 254 255 9.0
e 254 256 33.0
e 255 243 60.0
e 255 258 88.0
e 255 259 26.0
e 255 275 82.0
e 255 264 86.0
e 255 260 16.0
e 255 261 3.0
e 258 291 99.0
e 268 246 20.0
e 269 254 69.0
e 269 255 12.0
e 269 258 86.0
e 269 263 94.0
e 269 264 55.0
e 269 266 85.0
e 269 267 7.0
e 269 268 54.0
e 269 270 83.0
e 270 271 87.0
e 270 272 14.0
e 270 276 14.0
e 270 277 18.0
e 270 291 88.0
e 270 310 75.0
e 270 279 35.0
e 272 269 41.0
e 272 271 97.0
e 272 276 85.0
e 272 277 9.0
e 272 279 63.0
e 272 280 51.0
e 272 282 9.0
e 272 287 73.0
e 276 279 48.0
e 276 280 44.0
e 276 282 31.0
e 279 282 81.0
e 279 287 37.0
e 279 291 47.0
e 279 292 11.0
e 282 270 84.0
e 287 276 54.0
e 287 282 11.0
e 287 291 69.0
e 287 292 38.0
e 287 294 18.0
e 287 296 14.0
e 291 272 12.0
e 291 292 46.0
e 291 294 70.0
e 294 279 51.0
e 294 296 20.0
e 294 297 68.0
e 294 298 98.0
e 294 299 30.0
e 294 300 64.0
e 296 291 14.0
e 296 297 31.0
e 296 298 97.0
e 296 300 62.0
e 297 300 1.0
e 297 287 74.0
e 297 301 7.0
e 297 304 97.0
e 297 305 55.0
e 300 301 42.0
e 300 305 28.0
e 300 307 46.0
e 300 308 25.0
e 301 294 41.0
e 301 296 1.0
e 301 307 3.0
e 301 310 85.0
e 301 311 58.0
e 301 315 64.0
e 301 316 6.0
e 307 297 39.0
e 307 310 91.0
e 307 315 17.0
e 307 316 26.0
e 310 315 50.0
e 316 300 38.0
e 316 310 15.0
